NAME : prob10a
TYPE : PDTSP
DIMENSION : 21
EDGE_WEIGHT_TYPE : EUC_2D
NODE_COORD_SECTION
1 977 396
2 664 527
3 82 506
4 99 665
5 472 133
6 671 877
7 84 133
8 37 734
9 421 283
10 428 261
11 716 453
12 486 313
13 247 753
14 747 8
15 94 980
16 192 549
17 434 827
18 601 255
19 734 573
20 106 871
21 621 913
PICKUP_AND_DELIVERY_SECTION
1 0 0 0 0 0 0
2 0 0 0 0 12 0
3 0 0 0 0 13 0
4 0 0 0 0 14 0
5 0 0 0 0 15 0
6 0 0 0 0 16 0
7 0 0 0 0 17 0
8 0 0 0 0 18 0
9 0 0 0 0 19 0
10 0 0 0 0 20 0
11 0 0 0 0 21 0
12 0 0 0 0 0 2
13 0 0 0 0 0 3
14 0 0 0 0 0 4
15 0 0 0 0 0 5
16 0 0 0 0 0 6
17 0 0 0 0 0 7
18 0 0 0 0 0 8
19 0 0 0 0 0 9
20 0 0 0 0 0 10
21 0 0 0 0 0 11
DEPOT_SECTION
1 
-1
EOF
